%%% static parameters %%%
timespan = 1;
Fact = [2];
Distr1 = [5];
Distr2 = [10];
Clients_N = [100];
Demand_W = [15];
Lt0 = [4];
Lt1 = [4];
SS_ = [0.85];
DS_D = [8];
K = [200];
MA = [500];
%%% dynamic parameters %%%
lost_ratio_sales_ret_th = 0.17614406145265316;
lost_ratio_sales_ret_w = 78;
lost_ratio_sales_dis_th = 0.003345188579783276;
lost_ratio_sales_dis_w = 94;
lost_ratio_sales_fac_th = 0.15874054294472106;
lost_ratio_sales_fac_w = 92;
stock_customer_MA_mean_relative_th = 0.5140475998185107;
stock_customer_MA_mean_relative_w = 33;
stock_distributor_MA_mean_relative_th = 0.8283771008660488;
stock_distributor_MA_mean_relative_w = 21;
stock_retailer_MA_mean_relative_th = 0.007139511162668533;
stock_retailer_MA_mean_relative_w = 39;
stock_factory_MA_mean_relative_th = 0.19168848602274213;
stock_factory_MA_mean_relative_w = 41;
